100
56 352
121 147
277 503
193 417
651 656
439 225
913 33
308 282
406 193
821 571
88 18
950 957
4 645
210 688
826 820
297 467
545 632
114 338
929 101
38 94
805 588
768 437
805 503
594 588
624 256
434 590
417 959
482 7
415 806
814 240
353 629
789 186
807 586
594 447
32 452
779 821
399 487
114 286
21 336
628 190
654 947
159 881
489 963
271 486
904 564
875 52
782 223
392 787
492 347
818 595
117 275
520 646
30 588
116 183
410 227
269 300
789 353
765 894
227 447
685 519
208 606
46 363
852 498
732 61
532 958
69 560
494 691
894 770
574 33
440 193
605 274
910 285
601 468
54 732
330 239
622 386
345 529
12 66
87 756
966 951
142 365
667 776
257 229
65 552
192 872
789 39
17 983
472 669
945 192
859 159
284 571
514 526
616 834
488 712
789 707
782 560
817 421
958 330
280 826
730 510
